
ASes= { 1, 2, 3, 4, 5, 6, 7, 8, 9, 10, 11 } ;


Objects= { 1, 2, 3, 4, 5, 6, 7, 8, 9, 10, 11, 12, 13, 14, 15, 16, 17, 18, 19, 20, 21, 22, 23, 24, 25, 26, 27, 28, 29, 30, 31, 32, 33, 34, 35, 36, 37, 38, 39, 40, 41, 42, 43, 44, 45, 46, 47, 48, 49, 50, 51, 52, 53, 54, 55, 56, 57, 58, 59, 60, 61, 62, 63, 64, 65, 66, 67, 68, 69, 70, 71, 72, 73, 74, 75, 76, 77, 78, 79, 80, 81, 82, 83, 84, 85, 86, 87, 88, 89, 90, 91, 92, 93, 94, 95, 96, 97, 98, 99, 100 } ;


QualityLevels= { 0, 1, 2, 3, 4, 5 } ;

Arcs = {<2,1,490000>, <1,2,490000>, <11,1,490000>, <1,11,490000>, <11,2,490000>, <2,11,490000>, <11,10,490000>, <10,11,490000>, <3,2,490000>, <2,3,490000>, <4,3,490000>, <3,4,490000>, <5,4,490000>, <4,5,490000>, <6,5,490000>, <5,6,490000>, <7,6,490000>, <6,7,490000>, <8,4,490000>, <4,8,490000>, <8,7,490000>, <7,8,490000>, <9,3,490000>, <3,9,490000>, <9,8,490000>, <8,9,490000>, <10,9,490000>, <9,10,490000>};


RatePerQuality= [ 0  300  700  1500  2500  3500 ] ;


CacheSpacePerQuality= [ 10000  11.25  26.25  56.25  93.75  131.25 ] ;


UtilityPerQuality= [ 0  0.2  0.4  0.6  0.8  1 ] ;


ObjectsPublishedByProducers=[ [ 0  0  0  0  0  0  0  1  0  0  0 ]  [ 0  0  0  0  0  0  0  1  0  0  0 ]  [ 0  0  0  0  0  0  0  1  0  0  0 ]  [ 0  0  0  0  0  0  0  1  0  0  0 ]  [ 0  0  0  0  0  0  0  1  0  0  0 ]  [ 0  0  0  0  0  0  0  1  0  0  0 ]  [ 0  0  0  0  0  0  0  1  0  0  0 ]  [ 0  0  0  0  0  0  0  1  0  0  0 ]  [ 0  0  0  0  0  0  0  1  0  0  0 ]  [ 0  0  0  0  0  0  0  1  0  0  0 ]  [ 0  0  0  0  0  0  0  1  0  0  0 ]  [ 0  0  0  0  0  0  0  1  0  0  0 ]  [ 0  0  0  0  0  0  0  1  0  0  0 ]  [ 0  0  0  0  0  0  0  1  0  0  0 ]  [ 0  0  0  0  0  0  0  1  0  0  0 ]  [ 0  0  0  0  0  0  0  1  0  0  0 ]  [ 0  0  0  0  0  0  0  1  0  0  0 ]  [ 0  0  0  0  0  0  0  1  0  0  0 ]  [ 0  0  0  0  0  0  0  1  0  0  0 ]  [ 0  0  0  0  0  0  0  1  0  0  0 ]  [ 0  0  0  0  0  0  0  1  0  0  0 ]  [ 0  0  0  0  0  0  0  1  0  0  0 ]  [ 0  0  0  0  0  0  0  1  0  0  0 ]  [ 0  0  0  0  0  0  0  1  0  0  0 ]  [ 0  0  0  0  0  0  0  1  0  0  0 ]  [ 0  0  0  0  0  0  0  1  0  0  0 ]  [ 0  0  0  0  0  0  0  1  0  0  0 ]  [ 0  0  0  0  0  0  0  1  0  0  0 ]  [ 0  0  0  0  0  0  0  1  0  0  0 ]  [ 0  0  0  0  0  0  0  1  0  0  0 ]  [ 0  0  0  0  0  0  0  1  0  0  0 ]  [ 0  0  0  0  0  0  0  1  0  0  0 ]  [ 0  0  0  0  0  0  0  1  0  0  0 ]  [ 0  0  0  0  0  0  0  1  0  0  0 ]  [ 0  0  0  0  0  0  0  1  0  0  0 ]  [ 0  0  0  0  0  0  0  1  0  0  0 ]  [ 0  0  0  0  0  0  0  1  0  0  0 ]  [ 0  0  0  0  0  0  0  1  0  0  0 ]  [ 0  0  0  0  0  0  0  1  0  0  0 ]  [ 0  0  0  0  0  0  0  1  0  0  0 ]  [ 0  0  0  0  0  0  0  1  0  0  0 ]  [ 0  0  0  0  0  0  0  1  0  0  0 ]  [ 0  0  0  0  0  0  0  1  0  0  0 ]  [ 0  0  0  0  0  0  0  1  0  0  0 ]  [ 0  0  0  0  0  0  0  1  0  0  0 ]  [ 0  0  0  0  0  0  0  1  0  0  0 ]  [ 0  0  0  0  0  0  0  1  0  0  0 ]  [ 0  0  0  0  0  0  0  1  0  0  0 ]  [ 0  0  0  0  0  0  0  1  0  0  0 ]  [ 0  0  0  0  0  0  0  1  0  0  0 ]  [ 0  0  0  0  0  0  0  1  0  0  0 ]  [ 0  0  0  0  0  0  0  1  0  0  0 ]  [ 0  0  0  0  0  0  0  1  0  0  0 ]  [ 0  0  0  0  0  0  0  1  0  0  0 ]  [ 0  0  0  0  0  0  0  1  0  0  0 ]  [ 0  0  0  0  0  0  0  1  0  0  0 ]  [ 0  0  0  0  0  0  0  1  0  0  0 ]  [ 0  0  0  0  0  0  0  1  0  0  0 ]  [ 0  0  0  0  0  0  0  1  0  0  0 ]  [ 0  0  0  0  0  0  0  1  0  0  0 ]  [ 0  0  0  0  0  0  0  1  0  0  0 ]  [ 0  0  0  0  0  0  0  1  0  0  0 ]  [ 0  0  0  0  0  0  0  1  0  0  0 ]  [ 0  0  0  0  0  0  0  1  0  0  0 ]  [ 0  0  0  0  0  0  0  1  0  0  0 ]  [ 0  0  0  0  0  0  0  1  0  0  0 ]  [ 0  0  0  0  0  0  0  1  0  0  0 ]  [ 0  0  0  0  0  0  0  1  0  0  0 ]  [ 0  0  0  0  0  0  0  1  0  0  0 ]  [ 0  0  0  0  0  0  0  1  0  0  0 ]  [ 0  0  0  0  0  0  0  1  0  0  0 ]  [ 0  0  0  0  0  0  0  1  0  0  0 ]  [ 0  0  0  0  0  0  0  1  0  0  0 ]  [ 0  0  0  0  0  0  0  1  0  0  0 ]  [ 0  0  0  0  0  0  0  1  0  0  0 ]  [ 0  0  0  0  0  0  0  1  0  0  0 ]  [ 0  0  0  0  0  0  0  1  0  0  0 ]  [ 0  0  0  0  0  0  0  1  0  0  0 ]  [ 0  0  0  0  0  0  0  1  0  0  0 ]  [ 0  0  0  0  0  0  0  1  0  0  0 ]  [ 0  0  0  0  0  0  0  1  0  0  0 ]  [ 0  0  0  0  0  0  0  1  0  0  0 ]  [ 0  0  0  0  0  0  0  1  0  0  0 ]  [ 0  0  0  0  0  0  0  1  0  0  0 ]  [ 0  0  0  0  0  0  0  1  0  0  0 ]  [ 0  0  0  0  0  0  0  1  0  0  0 ]  [ 0  0  0  0  0  0  0  1  0  0  0 ]  [ 0  0  0  0  0  0  0  1  0  0  0 ]  [ 0  0  0  0  0  0  0  1  0  0  0 ]  [ 0  0  0  0  0  0  0  1  0  0  0 ]  [ 0  0  0  0  0  0  0  1  0  0  0 ]  [ 0  0  0  0  0  0  0  1  0  0  0 ]  [ 0  0  0  0  0  0  0  1  0  0  0 ]  [ 0  0  0  0  0  0  0  1  0  0  0 ]  [ 0  0  0  0  0  0  0  1  0  0  0 ]  [ 0  0  0  0  0  0  0  1  0  0  0 ]  [ 0  0  0  0  0  0  0  1  0  0  0 ]  [ 0  0  0  0  0  0  0  1  0  0  0 ]  [ 0  0  0  0  0  0  0  1  0  0  0 ]  [ 0  0  0  0  0  0  0  1  0  0  0 ] ];

ObjRequests = {  <1,5,509>, <2,5,32>, <3,5,384>, <4,5,68>, <5,5,190>, <6,5,150>, <7,5,17>, <8,5,25>, <9,5,69>, <10,5,168>, <11,5,58>, <12,5,34>, <13,5,27>, <14,5,161>, <15,5,8>, <16,5,17>, <17,5,41>, <18,5,45>, <19,5,30>, <20,5,49>, <21,5,8>, <22,5,62>, <23,5,2>, <24,5,43>, <25,5,10>, <26,5,2>, <27,5,4>, <28,5,12>, <29,5,21>, <30,5,13>, <31,5,11>, <32,5,10>, <33,5,30>, <34,5,11>, <35,5,21>, <36,5,13>, <37,5,14>, <38,5,2>, <39,5,4>, <40,5,6>, <41,5,34>, <42,5,37>, <43,5,10>, <44,5,13>, <45,5,26>, <46,5,4>, <47,5,8>, <48,5,10>, <49,5,4>, <50,5,9>, <51,5,13>, <52,5,31>, <53,5,7>, <54,5,3>, <55,5,3>, <56,5,4>, <57,5,4>, <59,5,8>, <60,5,3>, <61,5,12>, <62,5,7>, <63,5,27>, <64,5,12>, <65,5,12>, <66,5,7>, <67,5,1>, <68,5,4>, <69,5,11>, <70,5,20>, <71,5,10>, <72,5,11>, <73,5,9>, <74,5,7>, <75,5,1>, <76,5,7>, <77,5,7>, <78,5,4>, <79,5,10>, <80,5,15>, <81,5,2>, <82,5,4>, <83,5,4>, <84,5,15>, <85,5,16>, <86,5,14>, <87,5,7>, <88,5,9>, <89,5,4>, <90,5,8>, <91,5,1>, <92,5,14>, <93,5,13>, <94,5,6>, <95,5,12>, <96,5,11>, <97,5,13>, <98,5,16>, <99,5,4>, <100,5,4>, <1,6,621>, <2,6,417>, <3,6,78>, <4,6,254>, <5,6,84>, <6,6,5>, <7,6,307>, <8,6,18>, <9,6,59>, <10,6,25>, <11,6,177>, <12,6,6>, <13,6,65>, <14,6,3>, <15,6,41>, <17,6,15>, <18,6,84>, <19,6,15>, <20,6,48>, <21,6,4>, <22,6,39>, <23,6,24>, <24,6,53>, <25,6,47>, <26,6,38>, <27,6,23>, <28,6,54>, <29,6,6>, <30,6,9>, <31,6,17>, <32,6,35>, <33,6,19>, <34,6,6>, <35,6,24>, <36,6,2>, <37,6,5>, <38,6,30>, <39,6,28>, <40,6,20>, <41,6,1>, <42,6,9>, <43,6,2>, <44,6,14>, <45,6,13>, <46,6,20>, <47,6,1>, <48,6,13>, <49,6,13>, <50,6,5>, <51,6,14>, <52,6,8>, <53,6,6>, <54,6,6>, <55,6,18>, <56,6,2>, <57,6,31>, <58,6,11>, <59,6,5>, <60,6,4>, <61,6,2>, <64,6,21>, <65,6,12>, <66,6,18>, <67,6,2>, <68,6,11>, <69,6,17>, <70,6,11>, <71,6,5>, <72,6,4>, <73,6,8>, <74,6,21>, <75,6,5>, <76,6,12>, <77,6,6>, <78,6,27>, <79,6,7>, <80,6,7>, <81,6,7>, <82,6,5>, <83,6,7>, <84,6,9>, <85,6,3>, <86,6,7>, <87,6,19>, <88,6,14>, <89,6,6>, <90,6,2>, <91,6,19>, <92,6,3>, <93,6,7>, <94,6,4>, <95,6,1>, <96,6,4>, <97,6,4>, <98,6,11>, <99,6,3>, <100,6,1>, <1,7,1265>, <2,7,528>, <3,7,119>, <4,7,165>, <5,7,27>, <6,7,65>, <7,7,9>, <8,7,206>, <9,7,70>, <10,7,113>, <11,7,12>, <12,7,55>, <13,7,99>, <14,7,27>, <15,7,89>, <16,7,9>, <17,7,54>, <18,7,5>, <19,7,49>, <20,7,18>, <21,7,111>, <22,7,42>, <23,7,33>, <24,7,2>, <25,7,11>, <26,7,1>, <27,7,23>, <28,7,5>, <29,7,48>, <30,7,3>, <31,7,32>, <32,7,16>, <33,7,23>, <34,7,17>, <35,7,36>, <36,7,34>, <37,7,11>, <38,7,7>, <39,7,2>, <40,7,42>, <41,7,24>, <43,7,25>, <44,7,5>, <45,7,7>, <46,7,13>, <47,7,19>, <48,7,4>, <49,7,29>, <50,7,26>, <51,7,14>, <52,7,3>, <53,7,1>, <54,7,22>, <55,7,4>, <56,7,12>, <57,7,10>, <58,7,4>, <59,7,34>, <60,7,11>, <61,7,6>, <62,7,4>, <63,7,9>, <64,7,12>, <65,7,4>, <66,7,6>, <67,7,33>, <68,7,24>, <69,7,9>, <70,7,1>, <71,7,1>, <72,7,7>, <73,7,5>, <74,7,3>, <75,7,3>, <76,7,1>, <77,7,9>, <78,7,2>, <79,7,7>, <80,7,4>, <81,7,9>, <82,7,6>, <83,7,5>, <84,7,3>, <85,7,1>, <86,7,5>, <87,7,7>, <88,7,9>, <89,7,4>, <90,7,6>, <91,7,7>, <92,7,2>, <94,7,11>, <95,7,9>, <96,7,2>, <97,7,5>, <98,7,4>, <99,7,13>, <100,7,16>, <1,1,81>, <2,1,76>, <3,1,72>, <4,1,229>, <5,1,131>, <6,1,218>, <7,1,25>, <8,1,102>, <9,1,71>, <10,1,1>, <11,1,27>, <12,1,144>, <13,1,14>, <14,1,14>, <15,1,21>, <16,1,38>, <17,1,20>, <18,1,1>, <19,1,9>, <20,1,16>, <21,1,17>, <22,1,18>, <23,1,1>, <24,1,1>, <25,1,14>, <26,1,7>, <27,1,5>, <28,1,16>, <29,1,24>, <30,1,65>, <31,1,19>, <32,1,49>, <33,1,9>, <34,1,14>, <35,1,12>, <36,1,2>, <37,1,34>, <38,1,30>, <40,1,1>, <41,1,8>, <42,1,30>, <43,1,3>, <44,1,5>, <45,1,10>, <46,1,1>, <47,1,2>, <48,1,17>, <49,1,20>, <50,1,13>, <51,1,14>, <52,1,19>, <53,1,1>, <54,1,11>, <55,1,26>, <56,1,6>, <57,1,1>, <58,1,29>, <59,1,10>, <60,1,12>, <61,1,11>, <62,1,24>, <63,1,3>, <64,1,8>, <65,1,12>, <66,1,21>, <67,1,3>, <68,1,1>, <69,1,7>, <70,1,8>, <71,1,21>, <72,1,21>, <73,1,5>, <74,1,7>, <75,1,14>, <76,1,8>, <77,1,5>, <78,1,3>, <79,1,9>, <80,1,9>, <81,1,2>, <82,1,14>, <83,1,3>, <84,1,6>, <85,1,13>, <86,1,14>, <87,1,3>, <88,1,2>, <89,1,3>, <90,1,15>, <92,1,11>, <93,1,1>, <94,1,10>, <95,1,8>, <96,1,6>, <97,1,5>, <98,1,2>, <99,1,1>, <100,1,6>, <1,10,719>, <2,10,473>, <3,10,362>, <4,10,72>, <5,10,185>, <6,10,144>, <7,10,104>, <8,10,8>, <9,10,72>, <10,10,5>, <11,10,7>, <12,10,34>, <13,10,38>, <14,10,22>, <15,10,40>, <16,10,141>, <17,10,52>, <18,10,32>, <19,10,77>, <20,10,11>, <21,10,5>, <23,10,68>, <24,10,46>, <25,10,41>, <26,10,59>, <27,10,58>, <28,10,37>, <29,10,18>, <30,10,4>, <31,10,3>, <33,10,10>, <34,10,51>, <35,10,4>, <36,10,37>, <37,10,9>, <38,10,16>, <39,10,48>, <40,10,4>, <41,10,12>, <42,10,6>, <43,10,39>, <44,10,12>, <45,10,7>, <46,10,33>, <47,10,37>, <48,10,26>, <49,10,8>, <50,10,7>, <51,10,19>, <52,10,10>, <53,10,42>, <54,10,19>, <55,10,5>, <56,10,25>, <57,10,18>, <58,10,4>, <59,10,3>, <60,10,12>, <61,10,15>, <62,10,6>, <63,10,28>, <64,10,1>, <65,10,11>, <66,10,4>, <67,10,5>, <68,10,2>, <69,10,2>, <70,10,5>, <71,10,3>, <72,10,2>, <73,10,17>, <74,10,2>, <75,10,17>, <76,10,18>, <77,10,17>, <78,10,3>, <79,10,7>, <80,10,1>, <81,10,11>, <82,10,7>, <83,10,11>, <84,10,13>, <85,10,4>, <86,10,2>, <87,10,2>, <88,10,3>, <89,10,17>, <90,10,3>, <91,10,9>, <92,10,11>, <93,10,8>, <94,10,2>, <95,10,2>, <96,10,10>, <97,10,15>, <98,10,4>, <99,10,19> };

MaxCacheStorageAtSingleAS= [ 131.25  131.25  131.25  131.25  131.25  131.25  131.25  131.25  131.25  131.25  131.25 ] ;

MaxCacheStorage = 1443.75 ;
SolutionGap = 0.01 ;
